00
00
00
00
00
00
00
00
00
00
00
00
00
00
00
00
00
00
00
00
00
00
00
00
00
00
00
00
00
00
00
00
00
00
00
00
00
00
00
00
00
00
00
00
00
00
00
00
00
00
00
00
00
00
00
00
00
00
00
00
00
00
00
00
00
00
00
00
00
00
00
00
00
00
00
00
00
00
00
00
00
00
00
00
00
00
00
00
00
00
00
00
00
00
00
00
00
00
00
00
00
00
00
00
00
00
00
00
00
00
00
00
00
00
00
00
00
00
00
00
00
00
00
00
00
00
00
00
00
00
00
00
00
00
00
00
00
00
00
00
00
00
00
00
00
00
00
00
00
00
00
00
00
00
00
00
00
00
00
00
00
00
00
00
00
00
00
00
00
00
00
00
00
00
00
00
00
00
00
00
00
00
00
00
00
00
00
00
00
00
00
00
00
00
00
00
00
00
00
00
00
00
00
00
00
00
00
00
00
00
00
00
00
00
00
00
00
00
00
00
00
00
00
00
00
00
00
00
00
00
00
00
00
00
00
00
00
00
00
00
00
00
00
00
00
00
00
00
00
00
00
00
00
00
00
00
00
00
00
00
00
00
00
00
00
00
00
00
00
00
00
00
00
00
00
00
00
00
00
00
00
00
00
00
00
00
00
00
00
00
00
00
00
00
00
00
00
00
00
00
00
00
00
00
00
00
00
00
00
00
00
00
00
00
00
00
00
00
00
00
00
00
00
00
00
00
00
00
00
00
00
00
00
00
00
00
00
00
00
00
00
00
00
00
00
00
00
00
00
00
00
00
00
00
00
00
00
00
00
00
00
00
00
00
00
00
00
00
00
00
00
00
00
00
00
00
00
00
00
00
00
00
00
00
00
00
00
00
00
00
00
00
00
00
00
00
00
00
00
00
00
00
00
00
00
00
00
00
00
00
00
00
00
00
00
00
00
00
00
00
00
00
00
00
00
00
00
00
00
00
00
00
00
00
00
00
00
00
00
00
00
00
00
00
00
00
00
00
00
00
00
00
00
00
00
00
00
00
00
00
00
00
00
00
00
00
00
00
00
00
00
00
00
00
00
00
00
00
00
00
00
00
00
00
00
00
00
00
00
00
00
00
00
00
00
00
00
00
00
00
00
00
00
00
00
00
00
00
00
00
00
00
00
00
00
00
00
00
00
00
00
00
00
00
00
00
00
00
00
00
00
00
00
00
00
00
00
00
00
00
00
00
00
00
00
00
00
00
00
00
00
00
00
00
00
00
00
00
00
00
00
00
00
00
00
00
00
00
00
00
00
00
00
00
00
00
00
00
00
00
00
00
00
00
00
00
00
00
00
00
00
00
00
00
00
00
00
00
00
00
00
00
00
00
00
00
00
00
00
00
00
00
00
00
00
00
00
00
00
00
00
00
00
00
00
00
00
00
00
00
00
00
00
00
00
00
00
00
00
00
00
00
00
00
00
00
00
00
00
00
00
00
00
00
00
00
00
00
00
00
00
00
00
00
00
00
00
00
00
00
00
00
00
00
00
00
00
00
00
00
00
00
00
00
00
00
00
00
00
00
00
00
00
00
00
00
00
00
00
00
00
00
00
00
00
00
00
00
00
00
00
00
00
00
00
00
00
00
00
00
00
00
00
00
00
00
00
00
00
00
00
00
00
00
00
00
00
00
00
00
00
00
00
00
00
00
00
00
00
00
00
00
00
00
00
00
00
00
00
00
00
00
00
00
00
00
00
00
00
00
00
00
00
00
00
00
00
00
00
00
00
00
00
00
00
00
00
00
00
00
00
00
00
00
00
00
00
00
00
00
00
00
00
00
00
00
00
00
00
00
00
00
00
00
00
00
00
00
00
00
00
00
00
00
00
00
00
00
00
00
00
00
00
00
00
00
00
00
00
00
00
00
00
00
00
00
00
00
00
00
00
00
00
00
00
00
00
00
00
00
00
00
00
00
00
00
00
00
00
00
00
00
00
00
00
00
00
00
00
00
00
00
00
00
00
00
00
00
00
00
00
00
00
00
00
00
00
00
00
00
00
00
00
00
00
00
00
00
00
00
00
00
00
00
00
00
00
00
00
00
00
00
00
00
00
00
00
00
00
00
00
00
00
00
00
00
00
00
00
00
00
00
00
00
00
00
00
00
00
00
00
00
00
00
00
00
00
00
00
00
00
00
00
00
00
00
00
00
00
00
00
00
00
00
00
00
00
00
00
00
00
00
00
00
00
00
00
00
00
00
00
00
00
00
00
00
00
00
00
00
00
00
00
00
00
00
00
00
00
00
00
00
00
00
00
00
00
00
00
00
00
00
00
00
00
00
00
00
00
00
00
00
00
00
00
00
00
00
00
00
00
00
00
00
00
00
00
00
00
00
00
00
00
00
00
00
00
00
00
00
00
00
00
00
00
00
00
00
00
00
00
00
00
00
00
00
00
00
00
00
00
00
00
00
00
00
00
00
00
00
00
00
00
00
00
00
00
00
00
00
00
00
00
00
00
00
00
00
00
00
00
00
00
00
00
00
00
00
00
00
00
00
00
00
00
00
00
00
00
00
00
00
00
00
00
00
00
00
00
00
00
00
00
00
00
00
00
00
00
00
00
00
00
00
00
00
00
00
00
00
00
00
00
00
00
00
00
00
00
00
00
00
00
00
00
00
00
00
00
00
00
00
00
00
00
00
00
00
00
00
00
00
00
00
00
00
00
00
00
00
00
00
00
00
00
00
00
00
00
00
00
00
00
00
00
00
00
00
00
00
00
00
00
00
00
00
00
00
00
00
00
00
00
00
00
00
00
00
00
00
00
00
00
00
00
00
00
00
00
00
00
00
00
00
00
00
00
00
00
00
00
00
00
00
00
00
00
00
00
00
00
00
00
00
00
00
00
00
00
00
00
00
00
00
00
00
00
00
00
00
00
00
00
00
00
00
00
00
00
00
00
00
00
00
00
00
00
00
00
00
00
00
00
00
00
00
00
00
00
00
00
00
00
00
00
00
00
00
00
00
00
00
00
00
00
00
00
00
00
00
00
00
00
00
00
00
00
00
00
00
00
00
00
00
00
00
00
00
00
00
00
00
00
00
00
00
00
00
00
00
00
00
00
00
00
00
00
00
00
00
00
00
00
00
00
00
00
00
00
00
00
00
00
00
00
00
00
00
00
00
00
00
00
00
00
00
00
00
00
00
00
00
00
00
00
00
00
00
00
00
00
00
00
00
00
00
00
00
00
00
00
00
00
00
00
00
00
00
00
00
00
00
00
00
00
00
00
00
00
00
00
00
00
00
00
00
00
00
00
00
00
00
00
00
00
00
00
00
00
00
00
00
00
00
00
00
00
00
00
00
00
00
00
00
00
00
00
00
00
00
00
00
00
00
00
00
00
00
00
00
00
00
00
00
00
00
00
00
00
00
00
00
00
00
00
00
00
00
00
00
00
00
00
00
00
00
00
00
00
00
00
00
00
00
00
00
00
00
00
00
00
00
00
00
00
00
00
00
00
00
00
00
00
00
00
00
00
00
00
00
00
00
00
00
00
00
00
00
00
00
00
00
00
00
00
00
00
00
00
00
00
00
00
00
00
00
00
00
00
00
00
00
00
00
00
00
00
00
00
00
00
00
00
00
00
00
00
00
00
00
00
00
00
00
00
00
00
00
00
00
00
00
00
00
00
00
00
00
00
00
00
00
00
00
00
00
00
00
00
00
00
00
00
00
00
00
00
00
00
00
00
00
00
00
00
00
00
00
00
00
00
00
00
00
00
00
00
00
00
00
00
00
00
00
00
00
00
00
00
00
00
00
00
00
00
00
00
00
00
00
00
00
00
00
00
00
00
00
00
00
00
00
00
00
00
00
00
00
00
00
00
00
00
00
00
00
00
00
00
00
00
00
00
00
00
00
00
00
00
00
00
00
00
00
00
00
00
00
00
00
00
00
00
00
00
00
00
00
00
00
00
00
00
00
00
00
00
00
00
00
00
00
00
00
00
00
00
00
00
00
00
00
00
00
00
00
00
00
00
00
00
00
00
00
00
00
00
00
00
00
00
00
00
00
00
00
00
00
00
00
00
00
00
00
00
00
00
00
00
00
00
00
00
00
00
00
00
00
00
00
00
00
00
00
00
00
00
00
00
00
00
00
00
00
00
00
00
00
00
00
00
00
00
00
00
00
00
00
00
00
00
00
00
00
00
00
00
00
00
00
00
00
00
00
00
00
00
00
00
00
00
00
00
00
00
00
00
00
00
00
00
00
00
00
00
00
00
00
00
00
00
00
00
00
00
00
00
00
00
00
00
00
00
00
00
00
00
00
00
00
00
00
00
00
00
00
00
00
00
00
00
00
00
00
00
00
00
00
00
00
00
00
00
00
00
00
00
00
00
00
00
00
00
00
00
00
00
00
00
00
00
00
00
00
00
00
00
00
00
00
00
00
00
00
00
00
00
00
00
00
00
00
00
00
00
00
00
00
00
00
00
00
00
00
00
00
00
00
00
00
00
00
00
00
00
00
00
00
00
00
00
00
00
00
00
00
00
00
00
00
00
00
00
00
00
00
00
00
00
00
00
00
00
00
00
00
00
00
00
00
00
00
00
00
00
00
00
00
00
00
00
00
00
00
00
00
00
00
B3
B3
8E
C9
F4
B2
8F
C8
F5
46
7B
3C
01
DB
71
92
38
70
DA
39
93
E2
48
AB
01
3B
4B
90
3D
E6
96
4D
76
AD
DD
06
D9
A8
4D
3C
AF
DE
94
E5
76
07
E0
DD
4F
E4
76
AF
3D
96
04
AD
95
DD
E5
4D
75
3D
05
37
A7
D7
9A
EA
7A
0A
9E
44
78
A2
D1
0B
EC
43
7A
31
08
A1
32
9A
09
D7
EC
0E
47
0F
0C
34
69
8E
D3
8F
D2
35
68
E6
BB
5C
01
68
46
5C
CA
D0
FE
E4
A2
B8
96
8C
01
BB
03
B9
6A
D0
D1
6B
B8
02
8F
45
02
CB
8C
44
03
CA
8D
8C
6B
5F
B8
37
D0
E4
03
06
40
89
CC
05
43
8A
D4
BD
BF
D6
6D
04
E1
2A
BE
1F
8B
59
6D
31
05
6E
FB
88
D5
06
89
BB
8F
68
8C
6B
5F
B8
37
D0
E4
03
F5
D2
02
25
4C
6B
9E
B9
D0
F7
01
8D
F7
79
03
78
02
8C
F6
03
B9
6A
D0
D1
6B
B8
02
04
8B
05
88
06
89
07
98
D6
21
6F
BD
F3
BE
C7
D4
E1
F2
6E
BD
D5
06
BF
59
F0
6D
04
05
03
D0
05
D6
BE
6D
6E
BD
D5
06
8C
CF
06
40
89
CC
05
43
8A
89
BD
E1
D5
59
6D
31
05
0A
C0
86
49
0F
C5
83
61
DA
DC
67
B7
0C
3E
7E
DF
21
80
EB
B7
53
0F
B2
10
85
62
0A
86
02
07
F3
F2
06
F0
04
05
F1
06
6F
D4
BD
BF
D6
6D
04
08
0B
0A
0D
0C
0F
0E
2D
B1
42
DE
67
FB
61
93
B5
DF
F9
DC
67
B7
0C
63
B2
FD
DA
08
0A
8A
04
8B
05
88
06
89
07
0E
4B
83
C1
09
4C
84
F9
0C
FD
08
0A
FF
80
B9
0B
C0
72
85
0A
86
09
0D
49
75
0F
0E
83
0C
80
0F
85
0A
86
09
B5
67
63
B1
DA
08
DF
54
61
3E
0B
B2
DA
62
0A
DC
EB
0D
B7
0C
0F
16
14
1A
18
1E
1C
9D
D6
1D
5D
96
92
1E
97
1B
17
DB
9F
11
12
98
C2
3B
77
A3
EF
A5
CE
73
18
C6
79
E7
A9
10
14
FC
A3
42
1D
A8
82
6F
7C
16
9D
79
20
17
C4
14
11
CB
1A
92
1E
A4
8D
02
F6
F5
C8
C3
52
E2
7B
97
01
52
A6
97
62
29
7E
86
9F
C5
0F
53
01
7B
F4
64
EF
29
71
B3
C5
8E
F5
4E
8E
5A
53
92
F4
62
69
53
B3
41
C5
5E
29
86
F4
7A
36
31
85
A7
D5
27
F9
9A
B6
D7
EC
47
3F
1F
AE
2A
2D
C1
EC
89
A7
2F
75
49
43
7A
31
7B
F5
52
53
B3
41
C5
5E
29
86
F4
8F
C8
8E
56
16
B3
C7
64
29
C9
01
69
C9
77
F4
DB
8E
53
D3
F4
64
EF
29
71
B3
C5
8E
47
2D
A7
49
7A
31
BA
0B
D7
ED
32
9A
EA
AE
9E
F9
3F
B5
2F
9A
43
7A
B6
C1
E3
EC
47
A7
F4
29
A7
D7
AE
EC
2F
9A
43
7A
53
3A
7A
36
31
85
A7
D5
27
31
9A
3F
43
C1
EC
89
A7
DD
12
E4
88
96
B8
1D
57
76
99
4D
AF
3D
15
FE
91
ED
1B
B4
AF
8C
96
EE
D8
CC
CA
DD
E4
8E
BA
EA
B5
7A
E3
47
A7
E7
7A
32
F9
9A
B6
D7
EC
47
AD
98
DD
AA
3D
96
5D
8B
E5
F8
19
4D
75
57
4F
F2
91
D4
99
4D
AF
3D
5B
EE
FF
76
AD
DD
27
47
2D
A7
49
7A
31
BA
5D
1E
1D
59
9D
16
7C
D4
3D
FF
AD
DD
FD
1B
64
98
12
11
CC
DD
E4
9D
AA
88
FB
96
5D
1D
3D
1B
96
CC
DD
E4
9D
F2
4D
5B
E5
76
AD
91
81
57
15
98
EE
76
CA
DD
99
B4
AA
AF
3D
96
4C
E0
55
90
4B
A0
09
D7
83
0E
0F
44
4B
5C
80
66
78
A2
72
C0
0B
A5
A9
79
C6
6A
C2
A8
D9
90
A3
77
F1
3B
D8
E0
7F
C6
F8
83
CE
A1
32
84
4C
09
77
6C
66
65
E0
72
5A
55
44
4B
E6
22
28
14
3B
11
A9
73
18
1E
8E
95
4F
A9
E0
C4
2B
B0
CE
73
D3
3C
1E
A8
97
73
C4
14
11
C9
18
D9
1E
CE
A9
10
14
F4
E2
0F
67
DA
08
0A
7A
54
AB
70
BC
93
B5
B7
62
0A
86
EA
9B
B1
DA
BA
67
B7
E7
0C
A7
47
B7
67
BD
DB
D5
82
C3
D6
6D
5D
0A
05
C7
43
6D
D5
06
89
AD
04
5E
05
D6
BD
F3
06
DD
2F
8C
6B
D0
F7
03
E0
ED
49
E3
C1
B6
4C
B8
E4
03
CA
D8
41
B9
D0
C0
6B
B8
A0
02
4B
90
DA
6D
38
31
C3
2C
BD
D5
FD
D6
92
6D
FC
82
6F
BD
9D
49
B8
7E
41
B9
D0
C0
1C
EB
10
85
E3
86
EF
16
D0
E4
F0
5A
54
41
3E
7E
EF
21
6B
80
A0
06
71
89
BD
6D
04
05
3D
B6
CA
D0
B8
02
8C
90
15
E3
1C
2F
ED
6A
E4
96
8C
AF
B4
EF
6B
B8
A0
D0
E4
F0
03
E0
D8
C1
03
B9
6B
51
02
4B
B6
85
49
75
2F
83
D0
B8
02
8C
90
7E
25
6B
80
B9
D0
C0
F7
72
E0
5B
CC
AA
B4
99
CF
68
5C
01
46
48
3F
9C
BB
40
D2
68
60
F5
39
70
FF
0E
99
F8
35
FB
88
AA
89
CC
FF
43
EE
8A
26
F9
BB
5C
50
68
72
78
8F
70
6C
2A
AE
1F
D2
8B
60
BB
40
50
AB
3A
BA
1E
1D
A3
5D
16
7C
59
9D
27
14
16
C2
9D
EF
A3
6E
1D
11
9D
7C
FD
1D
42
FB
5D
0A
DA
86
0C
B7
47
0F
61
C0
F9
DF
37
80
3E
B5
F6
87
DF
80
21
F3
A0
61
D1
0B
4A
3E
A2
A7
12
E4
16
DD
B8
1D
88
96
98
DD
9D
AD
96
5D
AA
3D
09
0A
4C
0E
0F
D7
83
0B
E0
5C
80
44
4B
C0
F9
DF
37
80
4B
A0
55
90
0B
78
72
A2
C0
66
1B
96
1D
3D
E4
9D
CC
DD
0E
0C
83
FF
0A
9A
09
F9
4B
68
0B
78
72
80
AE
61
D1
0B
72
C0
66
E0
F9
50
5C
37
80
44
83
0F
6A
09
86
32
4C
80
90
72
C0
66
E0
A0
0B
3E
A2
C0
E0
F0
F1
D8
80
44
4B
F3
A0
55
06
CF
F1
05
4D
8A
89
04
6D
3D
05
8A
43
19
26
06
76
07
AD
89
E5
40
57
BE
E6
8B
39
60
33
70
F2
28
2E
95
40
22
8B
1F
51
60
D4
4F
F2
CD
E1
95
40
22
AB
F7
50
A4
E6
8B
3C
51
3C
0F
47
B7
0C
86
DA
0A
93
0A
7A
DA
08
0F
67
0C
E2
90
B8
02
CA
D0
03
B6
A0
4B
D8
C0
E0
4C
6B
E4
41
D0
E3
03
B9
F7
C1
B8
8C
ED
6B
49
2F
05
3D
6D
04
89
BD
06
71
48
5C
01
65
68
8F
5B
50
AB
6C
60
70
26
BB
72
AE
68
FF
8F
D2
F5
EE
5C
46
F8
BB
AA
99
70
68
F5
46
BB
01
99
60
39
48
40
AB
CF
D2
5C
3F
BB
AA
01
9C
A6
B4
68
8F
5B
D2
CC
EE
18
49
12
10
E3
FA
BA
17
C6
E7
A4
47
27
A7
2D
1A
EA
DF
BA
33
B5
EB
14
7F
10
65
E3
B2
85
C8
18
1C
87
EB
46
AC
E7
F8
27
22
A5
1A
F6
84
51
33
BA
7A
B5
3A
3C
36
E7
A4
61
22
AF
F1
66
04
F3
07
2B
55
BC
C9
39
2E
E2
7C
23
11
F5
A6
7B
82
97
C4
73
97
A8
1E
9C
01
B4
A6
F5
D8
C4
C3
52
FC
E2
23
AB
39
93
42
BC
97
01
F5
C8
C3
52
A6
C4
52
FC
11
D2
8F
EE
F5
01
B4
A6
2C
7B
82
75
49
85
B6
1F
C1
0D
FD
C1
BE
AD
B2
E3
C8
85
49
7B
0D
9E
2F
E1
31
D5
EC
2A
89
27
47
2D
A7
7A
36
31
F9
9A
3F
2C
A7
24
D5
31
38
6D
3F
43
C7
BA
3C
3A
B5
7A
36
2D
A7
24
AE
51
02
4B
F7
C1
03
B9
33
46
22
E5
A4
95
D9
A4
9B
8D
F7
65
84
3B
72
19
F6
51
58
75
02
31
0D
D5
24
A7
2C
49
A7
2D
47
27
85
C8
E3
B2
36
7A
3A
B5
3C
BA
75
89
2A
EC
D5
AD
BE
C1
FD
C7
43
6D
3F
38
31
C1
1F
B6
85
3F
9A
31
F9
36
7A
E1
2F
0D
9E
7B
49
AE
24
A7
2D
EB
BA
22
27
F8
E7
49
C8
85
B2
E3
2D
A7
27
47
36
3C
B5
3A
7A
BA
18
65
10
7F
14
A4
E7
C6
17
33
51
F6
84
1A
A5
FA
E3
10
12
AC
46
87
EB
1C
18
B5
33
DF
BA
EA
1A
22
61
A4
E7
B4
77
6C
5A
44
5A
48
6C
78
36
2D
22
24
28
3C
2D
24
36
3C
1B
98
11
12
14
1E
12
1B
1E
1C
18
14
09
0A
0F
0C
82
2C
EE
C3
41
6C
7E
77
EF
5A
EF
5A
41
C2
16
77
2D
AE
36
B5
EE
2C
82
99
B4
C3
B5
36
AE
2D
0C
0F
0A
09
8C

